115	115	115	115
113	113	113
144	144	144	144	144	144	144	144	144	144	144	144	144	144	144	144	144	144	144	144	144	144	144	144
110.25	110.25	110.25	110.25	110.25	110.25	110.25	110.25	110.25	110.25
142.66	142.66	142.66	142.66	142.66	142.66	142.66	142.66	142.66	142.66	142.66	142.66	142.66	142.66	142.66	142.66	142.66	142.66	142.66	142.66
4.5	4.5
12	12	12	12	12	12	12	12	12	12	12	12	12
12.5	12.5	12.5	12.5
12.5	12.5
18.5
20.75	20.75	20.75	20.75
21.5
25.5
35	35	35	35	35	35
40	40	40	40
41
52
65	65
73.75	73.75	73.75	73.75	73.75	73.75
81	81	81	81	81	81	81
87
96	96
96	96	96	96	96	96	96	96	96	96	96	96	96	96	96	96	96	96	96	96	96	96	96	96	96	96	96	96	96	96	96	96	96	96	96	96	96	96	96	96	96	96	96	96	96	96	96	96	96	96	96	96	96	96	96	96	96	96
81.5	81.5	81.5	81.5	81.5	81.5	81.5	81.5	81.5	81.5
86	86	86	86	86	86	86	86	86	86	86	86	86	86	86	86	86	86	86	86	86	86	86	86	86	86	86	86	86	86	86	86	86	86	86	86	86	86	86	86
3.5	3.5	3.5	3.5	3.5	3.5	3.5	3.5	3.5	3.5	3.5	3.5	3.5	3.5	3.5	3.5	3.5	3.5	3.5	3.5	3.5	3.5	3.5	3.5	3.5	3.5	3.5	3.5	3.5	3.5	3.5	3.5	3.5	3.5	3.5	3.5	3.5	3.5	3.5	3.5
5.97	5.97	5.97	5.97	5.97	5.97	5.97	5.97	5.97	5.97
9.78	9.78	9.78	9.78	9.78	9.78	9.78	9.78	9.78	9.78
10.25	10.25	10.25	10.25	10.25	10.25	10.25	10.25	10.25	10.25	10.25	10.25	10.25	10.25	10.25	10.25	10.25	10.25	10.25	10.25
11.06	11.06	11.06	11.06	11.06
13	13	13	13	13	13	13	13	13	13
13	13	13	13	13
15.47	15.47	15.47	15.47	15.47
32	32	32	32	32	32	32	32	32	32	32	32	32	32	32	32	32	32	32	32
51.09	51.09	51.09	51.09	51.09
62	62	62	62	62	62	62	62	62	62	62	62	62	62	62
86	86	86	86	86	86	86	86	86	86	86	86	86	86	86
96	96	96	96	96	96	96	96	96	96	96	96	96	96	96	96	96	96	96	96	96	96	96	96	96	96	96	96	96	96	96	96	96	96	96	96	96	96	96	96	96	96	96	96	96	96	96	96	96	96	96	96	96	96	96	96	96	96	96	96	96	96	96	96	96	96	96	96	96	96
96	96	96	96	96	96	96	96	96	96	96	96	96	96	96	96	96	96	96	96	96	96	96	96	96	96	96	96	96	96	96	96	96	96	96	96	96	96	96
3.5	3.5	3.5	3.5	3.5	3.5	3.5	3.5	3.5	3.5	3.5	3.5	3.5	3.5	3.5	3.5	3.5	3.5	3.5	3.5	3.5	3.5	3.5	3.5	3.5	3.5	3.5	3.5	3.5	3.5	3.5	3.5	3.5	3.5	3.5	3.5	3.5	3.5	3.5	3.5	3.5	3.5	3.5	3.5	3.5	3.5
6	6
6
6	6
9	9	9	9	9	9	9
12	12	12
14	14
17.5
19.38	19.38	19.38	19.38	19.38	19.38
20	20	20	20
22	22	22	22	22	22
22
22.5	22.5	22.5	22.5	22.5	22.5	22.5	22.5	22.5	22.5	22.5	22.5	22.5	22.5	22.5	22.5	22.5	22.5	22.5	22.5	22.5	22.5	22.5	22.5	22.5	22.5	22.5	22.5	22.5	22.5	22.5	22.5	22.5	22.5	22.5	22.5	22.5	22.5	22.5	22.5	22.5	22.5	22.5	22.5	22.5	22.5	22.5	22.5	22.5	22.5	22.5	22.5	22.5
22.5	22.5	22.5	22.5	22.5	22.5	22.5	22.5	22.5	22.5	22.5	22.5
50
60	60	60	60
84	84	84
96
96	96	96
96	96	96	96	96	96
6.03
12.5	12.5
14.5	14.5	14.5	14.5
15
38	38	38
39
43
44.25	44.25
45.75
48.75
60
4	4	4	4	4	4	4	4	4	4	4	4	4	4	4	4
41	41	41	41	41	41	41	41	41
22.5	22.5	22.5	22.5	22.5	22.5	22.5	22.5	22.5	22.5	22.5	22.5	22.5	22.5	22.5	22.5	22.5	22.5	22.5	22.5	22.5	22.5	22.5	22.5	22.5	22.5	22.5	22.5	22.5	22.5	22.5	22.5	22.5	22.5	22.5
92.63	92.63	92.63	92.63	92.63	92.63	92.63	92.63	92.63	92.63	92.63	92.63	92.63	92.63	92.63	92.63	92.63	92.63
18.25	18.25	18.25	18.25
21.25	21.25	21.25	21.25
5.75	5.75	5.75	5.75	5.75	5.75
13	13	13	13	13	13
42.5	42.5	42.5
45.5	45.5	45.5
81.5	81.5	81.5	81.5	81.5	81.5
12.31	12.31
17.38	17.38
45.94	45.94	45.94	45.94	45.94	45.94	45.94	45.94
58.19	58.19
10	10	10	10	10	10	10	10	10	10	10	10
85	85	85	85	85	85	85	85	85	85	85	85
96	96	96	96	96	96	96	96	96	96	96	96	96	96	96	96	96	96	96	96	96	96	96	96	96	96	96	96	96	96	96	96	96	96	96	96	96	96	96	96	96
9.09	9.09	9.09	9.09	9.09	9.09	9.09	9.09	9.09	9.09	9.09	9.09	9.09	9.09	9.09	9.09	9.09	9.09	9.09	9.09
11	11	11	11	11	11	11	11	11	11	11	11	11	11	11	11	11	11	11	11	11	11	11	11	11	11	11	11	11	11
15.25	15.25	15.25	15.25	15.25	15.25	15.25	15.25	15.25	15.25	15.25	15.25	15.25	15.25	15.25	15.25	15.25	15.25	15.25	15.25	15.25	15.25	15.25	15.25	15.25	15.25	15.25	15.25	15.25	15.25
17.19	17.19	17.19	17.19	17.19	17.19	17.19	17.19	17.19	17.19
20.63	20.63	20.63	20.63	20.63	20.63	20.63	20.63	20.63	20.63	20.63	20.63	20.63	20.63	20.63	20.63	20.63	20.63	20.63	20.63
21.13	21.13	21.13	21.13	21.13	21.13	21.13	21.13	21.13	21.13	21.13	21.13	21.13	21.13	21.13	21.13	21.13	21.13	21.13	21.13	21.13	21.13	21.13	21.13	21.13	21.13	21.13	21.13	21.13	21.13	21.13	21.13	21.13	21.13	21.13	21.13	21.13	21.13	21.13	21.13	21.13	21.13	21.13	21.13	21.13	21.13	21.13	21.13	21.13	21.13	21.13	21.13	21.13	21.13	21.13	21.13	21.13	21.13	21.13	21.13
22.13	22.13	22.13	22.13	22.13	22.13	22.13	22.13	22.13	22.13	22.13	22.13	22.13	22.13	22.13	22.13	22.13	22.13	22.13	22.13	22.13	22.13	22.13	22.13	22.13	22.13	22.13	22.13	22.13	22.13	22.13	22.13	22.13	22.13	22.13	22.13	22.13	22.13	22.13	22.13	22.13	22.13	22.13	22.13	22.13	22.13	22.13	22.13	22.13	22.13	22.13	22.13	22.13	22.13	22.13	22.13	22.13	22.13	22.13	22.13	22.13	22.13	22.13	22.13	22.13	22.13	22.13	22.13	22.13	22.13	22.13	22.13	22.13	22.13	22.13	22.13	22.13	22.13	22.13	22.13	22.13	22.13	22.13	22.13	22.13	22.13	22.13	22.13	22.13	22.13	22.13	22.13	22.13	22.13	22.13	22.13	22.13	22.13	22.13	22.13	22.13	22.13	22.13	22.13	22.13	22.13	22.13	22.13	22.13	22.13	22.13	22.13	22.13	22.13	22.13	22.13	22.13	22.13	22.13	22.13	22.13	22.13	22.13	22.13	22.13	22.13	22.13	22.13	22.13	22.13	22.13	22.13	22.13	22.13	22.13	22.13	22.13	22.13	22.13	22.13	22.13	22.13	22.13	22.13	22.13	22.13	22.13	22.13	22.13	22.13	22.13	22.13	22.13	22.13	22.13	22.13	22.13	22.13	22.13	22.13	22.13	22.13	22.13	22.13	22.13	22.13	22.13	22.13	22.13	22.13	22.13	22.13	22.13	22.13	22.13	22.13	22.13	22.13	22.13	22.13	22.13	22.13	22.13	22.13	22.13	22.13	22.13	22.13	22.13	22.13	22.13	22.13	22.13	22.13	22.13	22.13	22.13	22.13	22.13	22.13